3247 7235
3875 6688
2327 1679
3851 3911
7808 2307
2327 4873
2166 9746
5606 1524
8186 8000
5462 4323
8857 7128
6572 9850
8462 3160
7997 9952
1137 7590
7010 5121
9874 8064
1385 3619
3573 8161
7470 1292
4205 2913
1849 5270
1629 3476
8054 4149
7193 3982
3840 5350
4514 5252
7014 392
6494 1888
9431 5401
652 2081
8547 6504
2808 593
5625 6701
9021 6841
7989 8220
810 8976
6099 6977
2621 4037
1109 3942
7922 1259
9780 6472
8103 6850
8535 5412
3487 7162
8820 3324
9250 8509
5733 7682
2934 5619
9966 1851
